42 39 36 44 38 40 1 3 5 2 55 
65 83 64 19 23 21 48 18 49 22 66 
45 46 8 7 6 4 100 70 
81 61 68 
82 11 15 16 47 14 73 79 78 12 9 86 74 25 77 58 
94 62 85 63 76 51 84 56 91 80 
92 95 33 31 29 27 28 30 50 67 71 72 41 43 35 37 54 
90 99 52 87 59 75 97 57 24 20 89 26 32 34 93 96 
69 98 88 53 10 13 17 60 
